&GLOBAL
  PROJECT coarse_MT_PTCDA_PBE_GPW 
  RUN_TYPE ENERGY
  PRINT_LEVEL MEDIUM
&END GLOBAL

&FORCE_EVAL
  METHOD Quickstep
  &SUBSYS
    &CELL
      ABC 30.0 30.0 30.0                       !increase cell size
      PERIODIC NONE
    &END
    &TOPOLOGY
      COORD_FILE_NAME ./PTCDA.xyz
      COORDINATE xyz
      &CENTER_COORDINATES
      &END CENTER_COORDINATES
    &END
    &KIND O
      BASIS_SET DZVP-MOLOPT-SR-GTH
      POTENTIAL GTH-PBE-q6
    &END KIND
    &KIND C
      BASIS_SET DZVP-MOLOPT-SR-GTH
      POTENTIAL GTH-PBE-q4
    &END KIND
    &KIND H
      BASIS_SET DZVP-MOLOPT-SR-GTH
      POTENTIAL GTH-PBE-q1
    &END KIND
  &END SUBSYS

  &DFT
    BASIS_SET_FILE_NAME ./../BASIS_MOLOPT
    POTENTIAL_FILE_NAME ./../GTH_POTENTIALS
    &PRINT
      &MO_CUBES                               !print out MO
        NHOMO 1
        NLUMO 1
      &END MO_CUBES
    &END PRINT
    &XC
      &XC_FUNCTIONAL PBE
      &END XC_FUNCTIONAL
    &END XC
    &POISSON                                  !use nonperiodic solver
      PERIODIC NONE
      PSOLVER MT
    &END POISSON
    &QS
      METHOD GPW
    &END QS
	
    &MGRID
      CUTOFF [Ry] 280                         !PW grid cutoff energy
      NGRIDS 5
    &END MGRID
	
    &SCF
      SCF_GUESS ATOMIC
      EPS_SCF 1.0E-6
      MAX_SCF 30
      &OT                                     !orbital transformation (robust)
        PRECONDITIONER FULL_SINGLE_INVERSE
        MINIMIZER CG
      &END OT
      &OUTER_SCF
        EPS_SCF 1.0E-6
        MAX_SCF 10
      &END
    &END SCF
 
  &END DFT
&END FORCE_EVAL
